28
18
0 18 19 22 23 24 26
1 20 22 23 26 27
2 18 19 20 22 24 25 26
3 18 19 22 24 26
4 19 20 22 24 25 26
5 18 19 20 22 24
6 18 19 20 23 26
7 18 24
8 20 24 25 26
9 18 22
10 19 20 25 26
11 19 20
12 21 24
13 19 24
14 18 19 20 23
15
16 25
17 26
